7440
1 1 1 1 1 1 1 1 1 1
4 4 4 4 4 4 4 4 6 0 0 0 0 0 0 0 1 8 1 1 1 7 6 2 2 2 2 2 2 2 2 3 3 3 3 3 3 3 3 3 4 0 8 1 2 8 7 5 9 9 7 6 5 5 8 8 7 7 9 5 5 5 9 3 0 6 6 8 1 5 4 9 9 7 7 9 6 6 5 8 7 9 7 9 9 7 6 5 7 5
